(set-logic HORN)
(declare-fun state (Int (Array Int Int) (Array Int Int) (Array Int Int) (Array Int Int) Int Int (Array Int Int) (Array Int Int) Int Int Int Int Int Int Int Int Int Int Int Int Int Int Int Int Int Int Int Int Int Int Int Int Int Int Int Int Int Int Int Int Bool Bool Bool Bool Bool (Array Int Int) Int) Bool)
(assert (forall ((|hhv_ULTIMATE.start_L15-2_0_Int| Int) (|hhv_ULTIMATE.start_L15-2_1_Array_Int_Int| (Array Int Int)) (|hhv_ULTIMATE.start_L15-2_2_Array_Int_Int| (Array Int Int)) (|hhv_ULTIMATE.start_L15-2_3_Array_Int_Array_Int_Int| (Array Int Int)) (|hhv_ULTIMATE.start_L15-2_4_Array_Int_Array_Int_Int| (Array Int Int)) (|hhv_ULTIMATE.start_L15-2_5_Int| Int) (|hhv_ULTIMATE.start_L15-2_6_Int| Int) (|hhv_ULTIMATE.start_L15-2_7_Array_Int_Int| (Array Int Int)) (|hhv_ULTIMATE.start_L15-2_8_Array_Int_Int| (Array Int Int)) (|hhv_ULTIMATE.start_L15-2_9_Int| Int) (|hhv_ULTIMATE.start_L15-2_10_Int| Int) (|hhv_ULTIMATE.start_L15-2_11_Int| Int) (|hhv_ULTIMATE.start_L15-2_12_Int| Int) (|hhv_ULTIMATE.start_L15-2_13_Int| Int) (|hhv_ULTIMATE.start_L15-2_14_Int| Int) (|hhv_ULTIMATE.start_L15-2_15_Int| Int) (|hbv_ULTIMATE.start_L12-14_16_Int| Int) (|hhv_ULTIMATE.start_L15-2_17_Int| Int) (|hhv_ULTIMATE.start_L15-2_18_Int| Int) (|hhv_ULTIMATE.start_L15-2_19_Int| Int) (|hhv_ULTIMATE.start_L15-2_20_Int| Int) (|hhv_ULTIMATE.start_L15-2_21_Int| Int) (|hhv_ULTIMATE.start_L15-2_22_Int| Int) (|hhv_ULTIMATE.start_L15-2_23_Int| Int) (|hhv_ULTIMATE.start_L15-2_24_Int| Int) (|hhv_ULTIMATE.start_L15-2_25_Int| Int) (|hhv_ULTIMATE.start_L15-2_26_Int| Int) (|hhv_ULTIMATE.start_L15-2_27_Int| Int) (|hhv_ULTIMATE.start_L15-2_28_Int| Int) (|hhv_ULTIMATE.start_L15-2_29_Int| Int) (|hhv_ULTIMATE.start_L15-2_30_Int| Int) (|hhv_ULTIMATE.start_L15-2_31_Int| Int) (|hhv_ULTIMATE.start_L15-2_32_Int| Int) (|hhv_ULTIMATE.start_L15-2_33_Int| Int) (|hhv_ULTIMATE.start_L15-2_34_Int| Int) (|hhv_ULTIMATE.start_L15-2_35_Int| Int) (|hhv_ULTIMATE.start_L15-2_36_Int| Int) (|hhv_ULTIMATE.start_L15-2_37_Int| Int) (|hhv_ULTIMATE.start_L15-2_38_Int| Int) (|hhv_ULTIMATE.start_L15-2_39_Int| Int) (|hhv_ULTIMATE.start_L15-2_40_Int| Int) (|hhv_ULTIMATE.start_L15-2_41_Bool| Bool) (|.loc.5| Bool) (|.loc.6| Bool) (|.loc.7| Bool) (|.loc.8| Bool) (|hbv_ULTIMATE.start_L-1_1_Array_Int_Int| (Array Int Int)) (|hbv_ULTIMATE.start_L15_16_Int| Int) (|.x.1254| Int) (|.x.1256| (Array Int Int)) (|.x.1258| (Array Int Int)) (|.x.1260| Int) (|.x.1264| Int) (|.x.1262| (Array Int Int)) (|.x.1266| Int) (|.x.1282| Int) (|.x.1267| Int) (|.x.1279| Int) (|.x.1281| Int) (|.x.1274| Int) (|.x.1270| Int) (|.x.1289| Int) (|hhv_ULTIMATE.start_ULTIMATE.startEXIT_41_Bool| Bool) (|.x.1286| Int) (|.x.1276| Int) (|.x.1265| Int) (|.x.1255| (Array Int Int)) (|.x.1288| Int) (|.loc.9| Bool) (|.loc.11| Bool) (|.loc.10| Bool) (|.x.1280| Int) (|.x.1284| Int) (|.x.1275| Int) (|.x.1269| Int) (|.x.1273| Int) (|.x.1292| Int) (|.x.1290| Int) (|.x.1272| Int) (|.x.1271| Int) (|.x.1257| (Array Int Int)) (|.x.1278| Int) (|.x.1283| Int) (|.x.1277| Int) (|.loc.12| Bool) (|.x.1285| Int) (|.x.1291| Int) (|.x.1268| Int) (|.x.1287| Int) (|.x.1294| Int) (|.x.1293| Int) (|.x.1259| Int) (|.x.1263| Int) (|.x.1261| (Array Int Int)) (|.xtv.1| (Array Int Int)) (|.xtv.2| Int)) (=> (and (and (and (and (not .loc.6) (not .loc.5)) (not .loc.7)) (not .loc.8)) (and (and (and (and (and (= hhv_ULTIMATE.start_L15-2_1_Array_Int_Int hhv_ULTIMATE.start_L15-2_2_Array_Int_Int) (not hhv_ULTIMATE.start_L15-2_41_Bool)) (= hhv_ULTIMATE.start_L15-2_7_Array_Int_Int hhv_ULTIMATE.start_L15-2_8_Array_Int_Int)) (= hhv_ULTIMATE.start_L15-2_5_Int hhv_ULTIMATE.start_L15-2_6_Int)) (= hhv_ULTIMATE.start_L15-2_3_Array_Int_Array_Int_Int hhv_ULTIMATE.start_L15-2_4_Array_Int_Array_Int_Int)) (= hhv_ULTIMATE.start_L15-2_9_Int hhv_ULTIMATE.start_L15-2_10_Int))) (state |hhv_ULTIMATE.start_L15-2_0_Int| |hhv_ULTIMATE.start_L15-2_1_Array_Int_Int| |hhv_ULTIMATE.start_L15-2_2_Array_Int_Int| |hhv_ULTIMATE.start_L15-2_3_Array_Int_Array_Int_Int| |hhv_ULTIMATE.start_L15-2_4_Array_Int_Array_Int_Int| |hhv_ULTIMATE.start_L15-2_5_Int| |hhv_ULTIMATE.start_L15-2_6_Int| |hhv_ULTIMATE.start_L15-2_7_Array_Int_Int| |hhv_ULTIMATE.start_L15-2_8_Array_Int_Int| |hhv_ULTIMATE.start_L15-2_9_Int| |hhv_ULTIMATE.start_L15-2_10_Int| |hhv_ULTIMATE.start_L15-2_11_Int| |hhv_ULTIMATE.start_L15-2_12_Int| |hhv_ULTIMATE.start_L15-2_13_Int| |hhv_ULTIMATE.start_L15-2_14_Int| |hhv_ULTIMATE.start_L15-2_15_Int| |hbv_ULTIMATE.start_L12-14_16_Int| |hhv_ULTIMATE.start_L15-2_17_Int| |hhv_ULTIMATE.start_L15-2_18_Int| |hhv_ULTIMATE.start_L15-2_19_Int| |hhv_ULTIMATE.start_L15-2_20_Int| |hhv_ULTIMATE.start_L15-2_21_Int| |hhv_ULTIMATE.start_L15-2_22_Int| |hhv_ULTIMATE.start_L15-2_23_Int| |hhv_ULTIMATE.start_L15-2_24_Int| |hhv_ULTIMATE.start_L15-2_25_Int| |hhv_ULTIMATE.start_L15-2_26_Int| |hhv_ULTIMATE.start_L15-2_27_Int| |hhv_ULTIMATE.start_L15-2_28_Int| |hhv_ULTIMATE.start_L15-2_29_Int| |hhv_ULTIMATE.start_L15-2_30_Int| |hhv_ULTIMATE.start_L15-2_31_Int| |hhv_ULTIMATE.start_L15-2_32_Int| |hhv_ULTIMATE.start_L15-2_33_Int| |hhv_ULTIMATE.start_L15-2_34_Int| |hhv_ULTIMATE.start_L15-2_35_Int| |hhv_ULTIMATE.start_L15-2_36_Int| |hhv_ULTIMATE.start_L15-2_37_Int| |hhv_ULTIMATE.start_L15-2_38_Int| |hhv_ULTIMATE.start_L15-2_39_Int| |hhv_ULTIMATE.start_L15-2_40_Int| |hhv_ULTIMATE.start_L15-2_41_Bool| |.loc.5| |.loc.6| |.loc.7| |.loc.8| |hbv_ULTIMATE.start_L-1_1_Array_Int_Int| |hbv_ULTIMATE.start_L15_16_Int|))))
(assert (forall ((|hhv_ULTIMATE.start_L15-2_0_Int| Int) (|hhv_ULTIMATE.start_L15-2_1_Array_Int_Int| (Array Int Int)) (|hhv_ULTIMATE.start_L15-2_2_Array_Int_Int| (Array Int Int)) (|hhv_ULTIMATE.start_L15-2_3_Array_Int_Array_Int_Int| (Array Int Int)) (|hhv_ULTIMATE.start_L15-2_4_Array_Int_Array_Int_Int| (Array Int Int)) (|hhv_ULTIMATE.start_L15-2_5_Int| Int) (|hhv_ULTIMATE.start_L15-2_6_Int| Int) (|hhv_ULTIMATE.start_L15-2_7_Array_Int_Int| (Array Int Int)) (|hhv_ULTIMATE.start_L15-2_8_Array_Int_Int| (Array Int Int)) (|hhv_ULTIMATE.start_L15-2_9_Int| Int) (|hhv_ULTIMATE.start_L15-2_10_Int| Int) (|hhv_ULTIMATE.start_L15-2_11_Int| Int) (|hhv_ULTIMATE.start_L15-2_12_Int| Int) (|hhv_ULTIMATE.start_L15-2_13_Int| Int) (|hhv_ULTIMATE.start_L15-2_14_Int| Int) (|hhv_ULTIMATE.start_L15-2_15_Int| Int) (|hbv_ULTIMATE.start_L12-14_16_Int| Int) (|hhv_ULTIMATE.start_L15-2_17_Int| Int) (|hhv_ULTIMATE.start_L15-2_18_Int| Int) (|hhv_ULTIMATE.start_L15-2_19_Int| Int) (|hhv_ULTIMATE.start_L15-2_20_Int| Int) (|hhv_ULTIMATE.start_L15-2_21_Int| Int) (|hhv_ULTIMATE.start_L15-2_22_Int| Int) (|hhv_ULTIMATE.start_L15-2_23_Int| Int) (|hhv_ULTIMATE.start_L15-2_24_Int| Int) (|hhv_ULTIMATE.start_L15-2_25_Int| Int) (|hhv_ULTIMATE.start_L15-2_26_Int| Int) (|hhv_ULTIMATE.start_L15-2_27_Int| Int) (|hhv_ULTIMATE.start_L15-2_28_Int| Int) (|hhv_ULTIMATE.start_L15-2_29_Int| Int) (|hhv_ULTIMATE.start_L15-2_30_Int| Int) (|hhv_ULTIMATE.start_L15-2_31_Int| Int) (|hhv_ULTIMATE.start_L15-2_32_Int| Int) (|hhv_ULTIMATE.start_L15-2_33_Int| Int) (|hhv_ULTIMATE.start_L15-2_34_Int| Int) (|hhv_ULTIMATE.start_L15-2_35_Int| Int) (|hhv_ULTIMATE.start_L15-2_36_Int| Int) (|hhv_ULTIMATE.start_L15-2_37_Int| Int) (|hhv_ULTIMATE.start_L15-2_38_Int| Int) (|hhv_ULTIMATE.start_L15-2_39_Int| Int) (|hhv_ULTIMATE.start_L15-2_40_Int| Int) (|hhv_ULTIMATE.start_L15-2_41_Bool| Bool) (|.loc.5| Bool) (|.loc.6| Bool) (|.loc.7| Bool) (|.loc.8| Bool) (|hbv_ULTIMATE.start_L-1_1_Array_Int_Int| (Array Int Int)) (|hbv_ULTIMATE.start_L15_16_Int| Int) (|.x.1254| Int) (|.x.1256| (Array Int Int)) (|.x.1258| (Array Int Int)) (|.x.1260| Int) (|.x.1264| Int) (|.x.1262| (Array Int Int)) (|.x.1266| Int) (|.x.1282| Int) (|.x.1267| Int) (|.x.1279| Int) (|.x.1281| Int) (|.x.1274| Int) (|.x.1270| Int) (|.x.1289| Int) (|hhv_ULTIMATE.start_ULTIMATE.startEXIT_41_Bool| Bool) (|.x.1286| Int) (|.x.1276| Int) (|.x.1265| Int) (|.x.1255| (Array Int Int)) (|.x.1288| Int) (|.loc.9| Bool) (|.loc.11| Bool) (|.loc.10| Bool) (|.x.1280| Int) (|.x.1284| Int) (|.x.1275| Int) (|.x.1269| Int) (|.x.1273| Int) (|.x.1292| Int) (|.x.1290| Int) (|.x.1272| Int) (|.x.1271| Int) (|.x.1257| (Array Int Int)) (|.x.1278| Int) (|.x.1283| Int) (|.x.1277| Int) (|.loc.12| Bool) (|.x.1285| Int) (|.x.1291| Int) (|.x.1268| Int) (|.x.1287| Int) (|.x.1294| Int) (|.x.1293| Int) (|.x.1259| Int) (|.x.1263| Int) (|.x.1261| (Array Int Int)) (|.xtv.1| (Array Int Int)) (|.xtv.2| Int)) (=> (and (state |hhv_ULTIMATE.start_L15-2_0_Int| |hhv_ULTIMATE.start_L15-2_1_Array_Int_Int| |hhv_ULTIMATE.start_L15-2_2_Array_Int_Int| |hhv_ULTIMATE.start_L15-2_3_Array_Int_Array_Int_Int| |hhv_ULTIMATE.start_L15-2_4_Array_Int_Array_Int_Int| |hhv_ULTIMATE.start_L15-2_5_Int| |hhv_ULTIMATE.start_L15-2_6_Int| |hhv_ULTIMATE.start_L15-2_7_Array_Int_Int| |hhv_ULTIMATE.start_L15-2_8_Array_Int_Int| |hhv_ULTIMATE.start_L15-2_9_Int| |hhv_ULTIMATE.start_L15-2_10_Int| |hhv_ULTIMATE.start_L15-2_11_Int| |hhv_ULTIMATE.start_L15-2_12_Int| |hhv_ULTIMATE.start_L15-2_13_Int| |hhv_ULTIMATE.start_L15-2_14_Int| |hhv_ULTIMATE.start_L15-2_15_Int| |hbv_ULTIMATE.start_L12-14_16_Int| |hhv_ULTIMATE.start_L15-2_17_Int| |hhv_ULTIMATE.start_L15-2_18_Int| |hhv_ULTIMATE.start_L15-2_19_Int| |hhv_ULTIMATE.start_L15-2_20_Int| |hhv_ULTIMATE.start_L15-2_21_Int| |hhv_ULTIMATE.start_L15-2_22_Int| |hhv_ULTIMATE.start_L15-2_23_Int| |hhv_ULTIMATE.start_L15-2_24_Int| |hhv_ULTIMATE.start_L15-2_25_Int| |hhv_ULTIMATE.start_L15-2_26_Int| |hhv_ULTIMATE.start_L15-2_27_Int| |hhv_ULTIMATE.start_L15-2_28_Int| |hhv_ULTIMATE.start_L15-2_29_Int| |hhv_ULTIMATE.start_L15-2_30_Int| |hhv_ULTIMATE.start_L15-2_31_Int| |hhv_ULTIMATE.start_L15-2_32_Int| |hhv_ULTIMATE.start_L15-2_33_Int| |hhv_ULTIMATE.start_L15-2_34_Int| |hhv_ULTIMATE.start_L15-2_35_Int| |hhv_ULTIMATE.start_L15-2_36_Int| |hhv_ULTIMATE.start_L15-2_37_Int| |hhv_ULTIMATE.start_L15-2_38_Int| |hhv_ULTIMATE.start_L15-2_39_Int| |hhv_ULTIMATE.start_L15-2_40_Int| |hhv_ULTIMATE.start_L15-2_41_Bool| |.loc.5| |.loc.6| |.loc.7| |.loc.8| |hbv_ULTIMATE.start_L-1_1_Array_Int_Int| |hbv_ULTIMATE.start_L15_16_Int|) (let ((.def_58 (not .loc.6))) (let ((.def_59 (not .loc.5))) (let ((.def_61 (not .loc.7))) (let ((.def_63 (not .loc.8))) (let ((.def_104 (= .x.1279 .x.1281))) (let ((.def_107 (= .x.1281 .x.1274))) (let ((.def_119 (and (and (<= (- 2147483648) .x.1274) (<= .x.1274 2147483647)) (= .x.1274 .x.1270)))) (let ((.def_122 (= hhv_ULTIMATE.start_L15-2_35_Int .x.1289))) (let ((.def_126 (= hhv_ULTIMATE.start_L15-2_32_Int .x.1286))) (let ((.def_129 (= hhv_ULTIMATE.start_L15-2_22_Int .x.1276))) (let ((.def_132 (= hhv_ULTIMATE.start_L15-2_11_Int .x.1265))) (let ((.def_135 (= hhv_ULTIMATE.start_L15-2_1_Array_Int_Int .x.1255))) (let ((.def_147 (ite (<= (+ hhv_ULTIMATE.start_L15-2_30_Int (* (- 4294967296) (to_int (* (/ 1 4294967296) (to_real hhv_ULTIMATE.start_L15-2_30_Int))))) 2147483647) (+ hhv_ULTIMATE.start_L15-2_30_Int (* (- 4294967296) (to_int (* (/ 1 4294967296) (to_real hhv_ULTIMATE.start_L15-2_30_Int))))) (+ (- 4294967296) (+ hhv_ULTIMATE.start_L15-2_30_Int (* (- 4294967296) (to_int (* (/ 1 4294967296) (to_real hhv_ULTIMATE.start_L15-2_30_Int))))))))) (let ((.def_149 (or hhv_ULTIMATE.start_L15-2_41_Bool (= .x.1270 .def_147)))) (let ((.def_163 (= hhv_ULTIMATE.start_L15-2_41_Bool hhv_ULTIMATE.start_ULTIMATE.startEXIT_41_Bool))) (let ((.def_166 (= hhv_ULTIMATE.start_L15-2_34_Int .x.1288))) (let ((.def_168 (= hhv_ULTIMATE.start_L15-2_20_Int .x.1274))) (let ((.def_170 (= hbv_ULTIMATE.start_L12-14_16_Int .x.1270))) (let ((.def_175 (not .loc.9))) (let ((.def_179 (not .loc.10))) (let ((.def_188 (and .def_135 (and .def_132 (and .def_129 (and .def_122 .def_126)))))) (let ((.def_194 (not .loc.11))) (let ((.def_227 (and .loc.5 .def_188))) (let ((.def_237 (<= 100000 hhv_ULTIMATE.start_L15-2_26_Int))) (let ((.def_238 (or hhv_ULTIMATE.start_L15-2_41_Bool .def_237))) (let ((.def_242 (= hhv_ULTIMATE.start_L15-2_26_Int .x.1280))) (let ((.def_244 (= hhv_ULTIMATE.start_L15-2_30_Int .x.1284))) (let ((.def_247 (= hhv_ULTIMATE.start_L15-2_21_Int .x.1275))) (let ((.def_250 (= hhv_ULTIMATE.start_L15-2_15_Int .x.1269))) (let ((.def_265 (or hhv_ULTIMATE.start_ULTIMATE.startEXIT_41_Bool (= (+ hhv_ULTIMATE.start_L15-2_26_Int (* (- 1) .x.1280)) (- 1))))) (let ((.def_268 (or hhv_ULTIMATE.start_L15-2_41_Bool (not .def_237)))) (let ((.def_272 (= hhv_ULTIMATE.start_L15-2_19_Int .x.1273))) (let ((.def_274 (= hhv_ULTIMATE.start_L15-2_38_Int .x.1292))) (let ((.def_276 (= hhv_ULTIMATE.start_L15-2_36_Int .x.1290))) (let ((.def_277 (and .def_274 .def_276))) (let ((.def_280 (= hhv_ULTIMATE.start_L15-2_18_Int .x.1272))) (let ((.def_283 (= hhv_ULTIMATE.start_L15-2_17_Int .x.1271))) (let ((.def_286 (= hhv_ULTIMATE.start_L15-2_3_Array_Int_Array_Int_Int .x.1257))) (let ((.def_291 (select hhv_ULTIMATE.start_L15-2_3_Array_Int_Array_Int_Int hhv_ULTIMATE.start_L15-2_11_Int))) (let ((.def_295 (= hhv_ULTIMATE.start_L15-2_11_Int .x.1292))) (let ((.def_297 (= .x.1273 .x.1272))) (let ((.def_299 (= .x.1292 .x.1290))) (let ((.def_301 (= .x.1280 1))) (let ((.def_303 (= hhv_ULTIMATE.start_L15-2_32_Int .x.1273))) (let ((.def_307 (= .x.1284 (select (select .x.1257 .x.1290) .x.1272)))) (let ((.def_322 (and hhv_ULTIMATE.start_L15-2_41_Bool .def_274))) (let ((.def_350 (<= 99999 hhv_ULTIMATE.start_L15-2_29_Int))) (let ((.def_355 (and .def_242 (and .def_244 (and .def_126 (and .def_122 .def_277)))))) (let ((.def_362 (and .def_132 (and .def_250 (and .def_283 (and .def_280 (and .def_272 (and .def_247 (and .def_129 .def_355))))))))) (let ((.def_379 (= hhv_ULTIMATE.start_L15-2_24_Int .x.1278))) (let ((.def_381 (= hhv_ULTIMATE.start_L15-2_29_Int .x.1283))) (let ((.def_384 (= hhv_ULTIMATE.start_L15-2_23_Int .x.1277))) (let ((.def_418 (not .loc.12))) (let ((.def_424 (= hhv_ULTIMATE.start_L15-2_31_Int .x.1285))) (let ((.def_426 (= hhv_ULTIMATE.start_L15-2_37_Int .x.1291))) (let ((.def_428 (= hhv_ULTIMATE.start_L15-2_25_Int .x.1279))) (let ((.def_431 (= hhv_ULTIMATE.start_L15-2_14_Int .x.1268))) (let ((.def_509 (and .def_424 (and .def_126 (and .def_122 (and .def_276 (and .def_274 .def_426))))))) (let ((.def_568 (= hhv_ULTIMATE.start_L15-2_33_Int .x.1287))) (let ((.def_570 (= hhv_ULTIMATE.start_L15-2_40_Int .x.1294))) (let ((.def_572 (= hhv_ULTIMATE.start_L15-2_39_Int .x.1293))) (let ((.def_573 (and .def_570 .def_572))) (let ((.def_575 (= hhv_ULTIMATE.start_L15-2_27_Int .x.1281))) (let ((.def_587 (select hhv_ULTIMATE.start_L15-2_3_Array_Int_Array_Int_Int .x.1265))) (let ((.def_655 (and .loc.5 (and .def_135 (and .def_286 (and .def_132 (and .def_431 (and .def_250 (and .def_283 (and .def_280 (and .def_272 (and .def_247 (and .def_129 (and .def_384 (and .def_379 (and .def_428 (and .def_242 (and .def_575 (and .def_381 (and .def_244 (and .def_424 (and .def_126 (and .def_568 (and .def_122 (and .def_276 (and .def_426 (and .def_274 (and .def_572 (and hhv_ULTIMATE.start_L15-2_41_Bool .def_570))))))))))))))))))))))))))))) (let ((.def_674 (and .def_424 (and .def_126 (and .def_568 (and .def_122 (and .def_276 (and .def_426 (and .def_274 .def_573))))))))) (let ((.def_689 (and .def_132 (and .def_431 (and .def_250 (and .def_283 (and .def_280 (and .def_272 (and .def_247 (and .def_129 (and .def_384 (and .def_379 (and .def_428 (and .def_242 (and .def_575 (and .def_381 (and .def_244 .def_674))))))))))))))))) (let ((.def_692 (and .loc.5 (and .def_135 (and .def_286 .def_689))))) (let ((.def_783 (<= 100000 hhv_ULTIMATE.start_L15-2_28_Int))) (and (and (= hhv_ULTIMATE.start_L15-2_0_Int .x.1254) (and (= hhv_ULTIMATE.start_L15-2_2_Array_Int_Int .x.1256) (and (= hhv_ULTIMATE.start_L15-2_4_Array_Int_Array_Int_Int .x.1258) (and (= hhv_ULTIMATE.start_L15-2_6_Int .x.1260) (and (= hhv_ULTIMATE.start_L15-2_10_Int .x.1264) (= hhv_ULTIMATE.start_L15-2_8_Array_Int_Int .x.1262)))))) (or (and (or (and (and (= hhv_ULTIMATE.start_L15-2_12_Int .x.1266) (and (= hhv_ULTIMATE.start_L15-2_28_Int .x.1282) (= hhv_ULTIMATE.start_L15-2_13_Int .x.1267))) (or (or (or (or (or (or (or (and (or (or (or (or (and (or (and (or (or (and (or (and (or (and (or (or (and .loc.6 (or (or (and (or (and .def_59 (and (or hhv_ULTIMATE.start_L15-2_41_Bool (or (not .def_104) (not .def_107))) (and (or hhv_ULTIMATE.start_L15-2_41_Bool .def_119) (and (and (and (and (and (and .def_122 hhv_ULTIMATE.start_ULTIMATE.startEXIT_41_Bool) .def_126) .def_129) .def_132) .def_135) .def_149)))) (and (or hhv_ULTIMATE.start_L15-2_41_Bool (and (= .x.1255 (store hhv_ULTIMATE.start_L15-2_1_Array_Int_Int hhv_ULTIMATE.start_L15-2_11_Int 0)) (= .x.1289 1))) (and (and (and (and (and .loc.5 (or hhv_ULTIMATE.start_ULTIMATE.startEXIT_41_Bool (= .x.1289 .x.1276))) .def_163) .def_166) .def_168) .def_170))) (and (and .def_175 .loc.11) .def_179)) (and (or .def_119 hhv_ULTIMATE.start_ULTIMATE.startEXIT_41_Bool) (and (or hhv_ULTIMATE.start_ULTIMATE.startEXIT_41_Bool (and .def_104 .def_107)) (and (and .def_163 (and .loc.10 (and .loc.9 (and .def_59 (and .def_149 .def_188))))) .def_194)))) (and .def_194 (and .loc.10 (and .loc.9 (and .def_59 (and .def_149 (and .def_135 (and .def_132 (and .def_129 (and .def_126 (and .def_122 (and hhv_ULTIMATE.start_L15-2_41_Bool hhv_ULTIMATE.start_ULTIMATE.startEXIT_41_Bool))))))))))))) (and .def_58 (and .def_194 (and .def_170 (and .def_168 (and .def_166 (and .def_163 (and .def_175 (and .loc.10 (and .loc.5 (and .def_135 (and .def_132 (and .def_129 (and .def_126 (and hhv_ULTIMATE.start_L15-2_41_Bool .def_122))))))))))))))) (and (and .def_58 (and .def_194 (and .def_170 (and .def_168 (and .def_166 (and .def_163 (and .def_175 (and .loc.10 .def_227)))))))) .def_238)) (and (and (and .def_242 .def_244) .def_247) .def_250)) (and (and (and .def_58 (and .def_194 (and .def_170 (and .def_168 (and .def_166 (and .def_163 (and .def_179 (and .loc.9 .def_227)))))))) .def_265) .def_268)) (and (and (and (and .def_272 .def_277) .def_280) .def_283) .def_286)) (and (or hhv_ULTIMATE.start_L15-2_41_Bool (and (and (and (and (and (and (= .x.1257 (store hhv_ULTIMATE.start_L15-2_3_Array_Int_Array_Int_Int hhv_ULTIMATE.start_L15-2_11_Int (store .def_291 (+ hhv_ULTIMATE.start_L15-2_32_Int 399996) hhv_ULTIMATE.start_L15-2_14_Int))) .def_295) .def_297) .def_299) .def_301) .def_303) .def_307)) (and .def_58 (and .def_194 (and .def_168 (and .def_166 (and .def_163 (and .def_179 (and .loc.9 (and .def_59 .def_188)))))))))) (and .loc.8 .def_61)) (and .def_63 (and .def_194 (and .def_170 (and .def_168 (and .def_166 (and .def_163 (and .def_179 (and .def_175 (and .loc.7 (and .loc.6 (and .loc.5 (and .def_135 (and .def_286 (and .def_132 (and .def_250 (and .def_283 (and .def_280 (and .def_272 (and .def_247 (and .def_129 (and .def_242 (and .def_244 (and .def_126 (and .def_122 (and .def_276 .def_322)))))))))))))))))))))))))) (and (or hhv_ULTIMATE.start_L15-2_41_Bool .def_350) (and .def_63 (and .def_194 (and .def_170 (and .def_168 (and .def_166 (and .def_163 (and .def_179 (and .def_175 (and .loc.7 (and .loc.6 (and .loc.5 (and .def_135 (and .def_286 .def_362))))))))))))))) (and (and (and .def_379 .def_381) .def_384) .loc.12)) (and (or hhv_ULTIMATE.start_L15-2_41_Bool (and (= .x.1257 (store hhv_ULTIMATE.start_L15-2_3_Array_Int_Array_Int_Int hhv_ULTIMATE.start_L15-2_11_Int (store .def_291 (+ (* 4 hhv_ULTIMATE.start_L15-2_29_Int) hhv_ULTIMATE.start_L15-2_32_Int) (select .def_291 (+ (+ (* 4 hhv_ULTIMATE.start_L15-2_29_Int) hhv_ULTIMATE.start_L15-2_32_Int) 4))))) (not .def_350))) (and (or hhv_ULTIMATE.start_ULTIMATE.startEXIT_41_Bool (= (+ hhv_ULTIMATE.start_L15-2_29_Int (* (- 1) .x.1283)) (- 1))) (and (and .def_63 (and .def_170 (and .def_168 (and .def_166 (and .def_163 (and .loc.11 (and .loc.10 (and .loc.9 (and .loc.7 (and .loc.6 (and .loc.5 (and .def_135 .def_362)))))))))))) .def_418)))) (and (and (and .def_424 .def_426) .def_428) .def_431)) (and (or hhv_ULTIMATE.start_ULTIMATE.startEXIT_41_Bool (and (and (and (and (= .x.1268 (select (select .x.1257 .x.1265) .x.1286)) (= .x.1279 .x.1270)) (<= .x.1270 2147483647)) (<= (- 2147483648) .x.1270)) (= .x.1283 0))) (and .def_418 (and .def_63 (and .def_168 (and .def_166 (and .def_163 (and .loc.11 (and .loc.10 (and .loc.9 (and .def_59 (and .loc.7 (and .loc.6 (and .def_149 (and .def_135 (and .def_286 (and .def_132 (and .def_250 (and .def_283 (and .def_280 (and .def_272 (and .def_247 (and .def_129 (and .def_384 (and .def_355 .def_379))))))))))))))))))))))))) (and .def_418 (and .def_63 (and .def_58 (and .def_170 (and .def_168 (and .def_166 (and .def_163 (and .def_175 (and .loc.11 (and .loc.10 (and .loc.7 (and .loc.5 (and .def_135 (and .def_286 (and .def_132 (and .def_431 (and .def_250 (and .def_283 (and .def_280 (and .def_272 (and .def_247 (and .def_129 (and .def_384 (and .def_379 (and .def_428 (and .def_242 (and .def_381 (and .def_244 (and .def_424 (and .def_126 (and .def_122 (and .def_276 (and .def_322 .def_426)))))))))))))))))))))))))))))))))) (and .def_418 (and .def_63 (and .def_238 (and .def_58 (and .def_170 (and .def_168 (and .def_166 (and .def_163 (and .def_175 (and .loc.11 (and .loc.10 (and .loc.7 (and .loc.5 (and .def_135 (and .def_286 (and .def_132 (and .def_431 (and .def_250 (and .def_283 (and .def_280 (and .def_272 (and .def_247 (and .def_129 (and .def_384 (and .def_379 (and .def_428 (and .def_242 (and .def_381 (and .def_244 .def_509)))))))))))))))))))))))))))))) (and .def_418 (and .def_63 (and .def_268 (and .def_265 (and .def_58 (and .def_170 (and .def_168 (and .def_166 (and .def_163 (and .def_179 (and .loc.11 (and .loc.9 (and .loc.7 (and .loc.5 (and .def_135 (and .def_286 (and .def_132 (and .def_431 (and .def_283 (and .def_280 (and .def_272 (and .def_129 (and .def_384 (and .def_379 (and .def_428 (and .def_381 .def_509))))))))))))))))))))))))))) (and (and .def_568 .def_573) .def_575)) (and (or hhv_ULTIMATE.start_L15-2_41_Bool (= hbv_ULTIMATE.start_L15_16_Int .def_147)) (and (or hhv_ULTIMATE.start_ULTIMATE.startEXIT_41_Bool (and (and (and .def_297 (and .def_301 (and (and .def_307 (and (and (and (and .def_299 (= .x.1265 .x.1292)) (= hbv_ULTIMATE.start_L15_16_Int .x.1281)) (= .x.1286 .x.1273)) (= .x.1257 (store hhv_ULTIMATE.start_L15-2_3_Array_Int_Array_Int_Int .x.1265 (store (store .def_587 .x.1286 (select .def_587 (+ .x.1286 4))) (+ .x.1286 4) .x.1268))))) (<= .x.1281 2147483647)))) (<= (- 2147483648) .x.1281)) (= .x.1268 (select .def_587 .x.1286)))) (and .def_418 (and .def_63 (and .def_58 (and .def_168 (and .def_166 (and .def_163 (and .def_179 (and .loc.11 (and .loc.9 (and .def_59 (and .loc.7 (and .def_135 (and .def_132 (and .def_129 (and .def_384 (and .def_379 (and .def_428 (and .def_381 (and .def_424 (and .def_126 (and .def_122 .def_426)))))))))))))))))))))))) (and .def_418 (and .def_63 (and .def_170 (and .def_168 (and .def_166 (and .def_163 (and .def_179 (and .def_175 (and .loc.11 (and .def_61 (and .loc.6 .def_655)))))))))))) (and .def_418 (and .def_63 (and .def_238 (and .def_170 (and .def_168 (and .def_166 (and .def_163 (and .def_179 (and .def_175 (and .loc.11 (and .def_61 (and .loc.6 .def_692))))))))))))) (and .def_418 (and .def_63 (and .def_268 (and .def_265 (and .def_194 (and .def_170 (and .def_168 (and .def_166 (and .def_163 (and .loc.10 (and .loc.9 (and .def_61 (and .loc.6 (and .loc.5 (and .def_135 (and .def_286 (and .def_132 (and .def_431 (and .def_283 (and .def_280 (and .def_272 (and .def_129 (and .def_384 (and .def_379 (and .def_428 (and .def_575 (and .def_381 .def_674)))))))))))))))))))))))))))) (and (or hhv_ULTIMATE.start_L15-2_41_Bool (and .def_297 (and .def_301 (and .def_299 (and (= .x.1284 (select (select hhv_ULTIMATE.start_L15-2_3_Array_Int_Array_Int_Int .x.1290) .x.1272)) (and .def_295 .def_303)))))) (and .def_418 (and .def_63 (and .def_194 (and .def_168 (and .def_166 (and .def_163 (and .loc.10 (and .loc.9 (and .def_61 (and .def_59 (and .loc.6 (and .def_135 (and .def_286 (and .def_132 (and .def_431 (and .def_129 (and .def_384 (and .def_379 (and .def_428 (and .def_575 (and .def_381 (and .def_424 (and .def_126 (and .def_568 (and .def_122 (and .def_426 .def_573)))))))))))))))))))))))))))) (and .def_418 (and .def_63 (and .def_58 (and .def_194 (and .def_170 (and .def_168 (and .def_166 (and .def_163 (and .def_175 (and .loc.10 (and .def_61 .def_655)))))))))))) (and (or hhv_ULTIMATE.start_L15-2_41_Bool .def_783) (and .def_418 (and .def_63 (and .def_58 (and .def_194 (and .def_170 (and .def_168 (and .def_166 (and .def_163 (and .def_175 (and .loc.10 (and .def_61 .def_692)))))))))))))) (and (or hhv_ULTIMATE.start_L15-2_41_Bool (and (= .x.1257 (store hhv_ULTIMATE.start_L15-2_3_Array_Int_Array_Int_Int hhv_ULTIMATE.start_L15-2_11_Int (store .def_291 (+ (* 4 hhv_ULTIMATE.start_L15-2_28_Int) hhv_ULTIMATE.start_L15-2_32_Int) hhv_ULTIMATE.start_L15-2_12_Int))) (and (<= (- 2147483648) hhv_ULTIMATE.start_L15-2_12_Int) (and (not .def_783) (<= hhv_ULTIMATE.start_L15-2_12_Int 2147483647))))) (and (or hhv_ULTIMATE.start_ULTIMATE.startEXIT_41_Bool (= (+ hhv_ULTIMATE.start_L15-2_28_Int (* (- 1) .x.1282)) (- 1))) (and .def_418 (and .def_63 (and .def_58 (and .def_194 (and .def_170 (and .def_168 (and .def_166 (and .def_163 (and .def_179 (and .loc.9 (and .def_61 (and .loc.5 (and .def_135 .def_689)))))))))))))))) (and (= hhv_ULTIMATE.start_L15-2_5_Int .x.1259) (and (= hhv_ULTIMATE.start_L15-2_9_Int .x.1263) (= hhv_ULTIMATE.start_L15-2_7_Array_Int_Int .x.1261)))) (and (or hhv_ULTIMATE.start_L15-2_41_Bool (and (and (= .x.1259 0) (= .x.1263 0)) (= hbv_ULTIMATE.start_L-1_1_Array_Int_Int (store hhv_ULTIMATE.start_L15-2_1_Array_Int_Int 0 0)))) (and (or hhv_ULTIMATE.start_ULTIMATE.startEXIT_41_Bool (and (and (and (and (and (and (= .x.1261 (store hhv_ULTIMATE.start_L15-2_7_Array_Int_Int .x.1265 400000)) (not (= .x.1265 0))) (= (select hbv_ULTIMATE.start_L-1_1_Array_Int_Int .x.1265) 0)) (= .x.1282 0)) (not (<= .x.1254 .x.1265))) (= .x.1255 (store hbv_ULTIMATE.start_L-1_1_Array_Int_Int .x.1265 1))) (= .x.1286 0))) (and .def_418 (and .def_63 (and .def_58 (and .def_194 (and .def_170 (and .def_163 (and .def_179 (and .loc.9 (and .def_61 (and .def_59 (and .def_286 (and .def_250 (and .def_283 (and .def_280 (and .def_272 (and .def_247 (and .def_129 (and .def_242 (and .def_244 .def_277))))))))))))))))))))))))))))))))))))))))))))))))))))))))))))))))))))))))))))))))))))))))))))) (state |.x.1254| |.x.1255| |.x.1256| |.x.1257| |.x.1258| |.x.1259| |.x.1260| |.x.1261| |.x.1262| |.x.1263| |.x.1264| |.x.1265| |.x.1266| |.x.1267| |.x.1268| |.x.1269| |.x.1270| |.x.1271| |.x.1272| |.x.1273| |.x.1274| |.x.1275| |.x.1276| |.x.1277| |.x.1278| |.x.1279| |.x.1280| |.x.1281| |.x.1282| |.x.1283| |.x.1284| |.x.1285| |.x.1286| |.x.1287| |.x.1288| |.x.1289| |.x.1290| |.x.1291| |.x.1292| |.x.1293| |.x.1294| |hhv_ULTIMATE.start_ULTIMATE.startEXIT_41_Bool| |.loc.9| |.loc.10| |.loc.11| |.loc.12| |.xtv.1| |.xtv.2|))))
(assert (forall ((|hhv_ULTIMATE.start_L15-2_0_Int| Int) (|hhv_ULTIMATE.start_L15-2_1_Array_Int_Int| (Array Int Int)) (|hhv_ULTIMATE.start_L15-2_2_Array_Int_Int| (Array Int Int)) (|hhv_ULTIMATE.start_L15-2_3_Array_Int_Array_Int_Int| (Array Int Int)) (|hhv_ULTIMATE.start_L15-2_4_Array_Int_Array_Int_Int| (Array Int Int)) (|hhv_ULTIMATE.start_L15-2_5_Int| Int) (|hhv_ULTIMATE.start_L15-2_6_Int| Int) (|hhv_ULTIMATE.start_L15-2_7_Array_Int_Int| (Array Int Int)) (|hhv_ULTIMATE.start_L15-2_8_Array_Int_Int| (Array Int Int)) (|hhv_ULTIMATE.start_L15-2_9_Int| Int) (|hhv_ULTIMATE.start_L15-2_10_Int| Int) (|hhv_ULTIMATE.start_L15-2_11_Int| Int) (|hhv_ULTIMATE.start_L15-2_12_Int| Int) (|hhv_ULTIMATE.start_L15-2_13_Int| Int) (|hhv_ULTIMATE.start_L15-2_14_Int| Int) (|hhv_ULTIMATE.start_L15-2_15_Int| Int) (|hbv_ULTIMATE.start_L12-14_16_Int| Int) (|hhv_ULTIMATE.start_L15-2_17_Int| Int) (|hhv_ULTIMATE.start_L15-2_18_Int| Int) (|hhv_ULTIMATE.start_L15-2_19_Int| Int) (|hhv_ULTIMATE.start_L15-2_20_Int| Int) (|hhv_ULTIMATE.start_L15-2_21_Int| Int) (|hhv_ULTIMATE.start_L15-2_22_Int| Int) (|hhv_ULTIMATE.start_L15-2_23_Int| Int) (|hhv_ULTIMATE.start_L15-2_24_Int| Int) (|hhv_ULTIMATE.start_L15-2_25_Int| Int) (|hhv_ULTIMATE.start_L15-2_26_Int| Int) (|hhv_ULTIMATE.start_L15-2_27_Int| Int) (|hhv_ULTIMATE.start_L15-2_28_Int| Int) (|hhv_ULTIMATE.start_L15-2_29_Int| Int) (|hhv_ULTIMATE.start_L15-2_30_Int| Int) (|hhv_ULTIMATE.start_L15-2_31_Int| Int) (|hhv_ULTIMATE.start_L15-2_32_Int| Int) (|hhv_ULTIMATE.start_L15-2_33_Int| Int) (|hhv_ULTIMATE.start_L15-2_34_Int| Int) (|hhv_ULTIMATE.start_L15-2_35_Int| Int) (|hhv_ULTIMATE.start_L15-2_36_Int| Int) (|hhv_ULTIMATE.start_L15-2_37_Int| Int) (|hhv_ULTIMATE.start_L15-2_38_Int| Int) (|hhv_ULTIMATE.start_L15-2_39_Int| Int) (|hhv_ULTIMATE.start_L15-2_40_Int| Int) (|hhv_ULTIMATE.start_L15-2_41_Bool| Bool) (|.loc.5| Bool) (|.loc.6| Bool) (|.loc.7| Bool) (|.loc.8| Bool) (|hbv_ULTIMATE.start_L-1_1_Array_Int_Int| (Array Int Int)) (|hbv_ULTIMATE.start_L15_16_Int| Int) (|.x.1254| Int) (|.x.1256| (Array Int Int)) (|.x.1258| (Array Int Int)) (|.x.1260| Int) (|.x.1264| Int) (|.x.1262| (Array Int Int)) (|.x.1266| Int) (|.x.1282| Int) (|.x.1267| Int) (|.x.1279| Int) (|.x.1281| Int) (|.x.1274| Int) (|.x.1270| Int) (|.x.1289| Int) (|hhv_ULTIMATE.start_ULTIMATE.startEXIT_41_Bool| Bool) (|.x.1286| Int) (|.x.1276| Int) (|.x.1265| Int) (|.x.1255| (Array Int Int)) (|.x.1288| Int) (|.loc.9| Bool) (|.loc.11| Bool) (|.loc.10| Bool) (|.x.1280| Int) (|.x.1284| Int) (|.x.1275| Int) (|.x.1269| Int) (|.x.1273| Int) (|.x.1292| Int) (|.x.1290| Int) (|.x.1272| Int) (|.x.1271| Int) (|.x.1257| (Array Int Int)) (|.x.1278| Int) (|.x.1283| Int) (|.x.1277| Int) (|.loc.12| Bool) (|.x.1285| Int) (|.x.1291| Int) (|.x.1268| Int) (|.x.1287| Int) (|.x.1294| Int) (|.x.1293| Int) (|.x.1259| Int) (|.x.1263| Int) (|.x.1261| (Array Int Int)) (|.xtv.1| (Array Int Int)) (|.xtv.2| Int)) (=> (state |hhv_ULTIMATE.start_L15-2_0_Int| |hhv_ULTIMATE.start_L15-2_1_Array_Int_Int| |hhv_ULTIMATE.start_L15-2_2_Array_Int_Int| |hhv_ULTIMATE.start_L15-2_3_Array_Int_Array_Int_Int| |hhv_ULTIMATE.start_L15-2_4_Array_Int_Array_Int_Int| |hhv_ULTIMATE.start_L15-2_5_Int| |hhv_ULTIMATE.start_L15-2_6_Int| |hhv_ULTIMATE.start_L15-2_7_Array_Int_Int| |hhv_ULTIMATE.start_L15-2_8_Array_Int_Int| |hhv_ULTIMATE.start_L15-2_9_Int| |hhv_ULTIMATE.start_L15-2_10_Int| |hhv_ULTIMATE.start_L15-2_11_Int| |hhv_ULTIMATE.start_L15-2_12_Int| |hhv_ULTIMATE.start_L15-2_13_Int| |hhv_ULTIMATE.start_L15-2_14_Int| |hhv_ULTIMATE.start_L15-2_15_Int| |hbv_ULTIMATE.start_L12-14_16_Int| |hhv_ULTIMATE.start_L15-2_17_Int| |hhv_ULTIMATE.start_L15-2_18_Int| |hhv_ULTIMATE.start_L15-2_19_Int| |hhv_ULTIMATE.start_L15-2_20_Int| |hhv_ULTIMATE.start_L15-2_21_Int| |hhv_ULTIMATE.start_L15-2_22_Int| |hhv_ULTIMATE.start_L15-2_23_Int| |hhv_ULTIMATE.start_L15-2_24_Int| |hhv_ULTIMATE.start_L15-2_25_Int| |hhv_ULTIMATE.start_L15-2_26_Int| |hhv_ULTIMATE.start_L15-2_27_Int| |hhv_ULTIMATE.start_L15-2_28_Int| |hhv_ULTIMATE.start_L15-2_29_Int| |hhv_ULTIMATE.start_L15-2_30_Int| |hhv_ULTIMATE.start_L15-2_31_Int| |hhv_ULTIMATE.start_L15-2_32_Int| |hhv_ULTIMATE.start_L15-2_33_Int| |hhv_ULTIMATE.start_L15-2_34_Int| |hhv_ULTIMATE.start_L15-2_35_Int| |hhv_ULTIMATE.start_L15-2_36_Int| |hhv_ULTIMATE.start_L15-2_37_Int| |hhv_ULTIMATE.start_L15-2_38_Int| |hhv_ULTIMATE.start_L15-2_39_Int| |hhv_ULTIMATE.start_L15-2_40_Int| |hhv_ULTIMATE.start_L15-2_41_Bool| |.loc.5| |.loc.6| |.loc.7| |.loc.8| |hbv_ULTIMATE.start_L-1_1_Array_Int_Int| |hbv_ULTIMATE.start_L15_16_Int|) (not (and hhv_ULTIMATE.start_L15-2_41_Bool (and .loc.8 (and .loc.7 (and (not .loc.6) (not .loc.5)))))))))
(check-sat)
